LWAVE = TRUE
LCHARG = TRUE
PREC = Accurate
IBRION = 2
POTIM = 0.5
ALGO = VeryFast
SIGMA = 0.01
ISMEAR = 0
EDIFF = 1E-6
ENCUT = 600
NELM = 200
NSW = 0
NCORE = 8
NPAR = 4
KPAR = 1
NSIM = 1
