 H  C 
 1.0000000000000000
    16.7259999999999991    0.0000000000000000    0.0000000000000000
     0.0000000000000000   19.1308000000000007    0.0000000000000000
     0.0000000000000000    0.0000000000000000   11.7607999999999997
 H   C  
  18   8
Cartesian
  7.8146999996163995 10.6885999997171197  6.7561000004563994
  7.8146999996163995 10.6885999997171197  5.0046999995436003
  8.9113000003835996  8.4422000002828810  6.7561000004563994
  8.9113000003835996  8.4422000002828810  5.0046999995436003
 10.3128999994087991 10.5691999994365204  5.0048000004499196
 10.3128999994087991 10.5691999994365204  6.7559999995500801
  6.4131000005911991  8.5616000005634803  5.0048000004499196
  6.4131000005911991  8.5616000005634803  6.7559999995500801
  9.2144000003085988 12.8115000005995601  6.7553999999925596
  9.2144000003085988 12.8115000005995601  5.0054000000074401
  7.5115999996914002  6.3192999994004406  6.7553999999925596
  7.5115999996914002  6.3192999994004406  5.0054000000074401
 11.1515000000318008 14.1307999997985601  5.8803999999999998
  5.5744999999682001  5.0000000002014398  5.8803999999999998
 11.7259999998763984 12.7161000002311617  5.0000000004615197
 11.7259999998763984 12.7161000002311617  6.7607999995384791
  5.0000000001235989  6.4146999997688408  5.0000000004615197
  5.0000000001235989  6.4146999997688408  6.7607999995384791
  8.3630999997361997 10.3277000002004407  5.8803999999999998
  8.3629000002637994  8.8030999997995600  5.8803999999999998
  9.7635999999905998 10.9293999991550397  5.8803999999999998
  6.9624000000093993  8.2014000008449610  5.8803999999999998
  9.7635999999905998 12.4539999995559203  5.8803999999999998
  6.9624000000093993  6.6768000004440804  5.8803999999999998
 11.1700999994704002 13.0414999995987202  5.8803999999999998
  5.5559000005295998  6.0893000004012796  5.8803999999999998
